<number of tasks>
100

<cycle time>
1000

<order strength>
0.9


<task times>
1 137
2 135
3 89
4 64
5 168
6 69
7 302
8 73
9 205
10 198
11 77
12 201
13 72
14 114
15 75
16 136
17 195
18 123
19 60
20 93
21 95
22 221
23 125
24 78
25 192
26 235
27 145
28 28
29 186
30 235
31 160
32 305
33 24
34 45
35 240
36 95
37 119
38 81
39 113
40 185
41 144
42 190
43 235
44 327
45 26
46 168
47 271
48 205
49 80
50 172
51 140
52 143
53 97
54 63
55 107
56 97
57 154
58 56
59 77
60 128
61 41
62 33
63 167
64 232
65 139
66 150
67 193
68 27
69 212
70 98
71 108
72 41
73 83
74 58
75 94
76 140
77 54
78 128
79 158
80 86
81 122
82 136
83 189
84 104
85 38
86 105
87 97
88 73
89 197
90 249
91 56
92 122
93 263
94 187
95 84
96 129
97 231
98 177
99 246
100 126

<precedence relations>
1,6
1,7
1,8
1,9
2,6
2,7
2,8
2,9
3,6
3,7
3,8
3,9
4,6
4,7
4,8
4,9
5,6
5,7
5,8
5,9
6,10
6,11
6,12
6,13
6,14
7,10
7,11
7,12
7,13
7,14
8,10
8,11
8,12
8,13
9,10
9,11
9,12
9,13
10,17
10,18
11,15
11,16
11,20
11,21
12,15
12,16
12,17
13,15
13,16
13,17
14,20
14,21
15,34
15,35
15,36
16,22
16,23
16,24
17,19
17,20
17,21
18,19
18,20
18,21
19,22
19,23
19,24
20,26
20,27
21,22
21,23
21,24
22,25
22,26
22,27
23,25
23,26
23,27
24,25
24,26
24,27
25,28
25,29
25,30
26,28
26,29
26,30
26,31
27,28
27,29
27,30
27,31
28,32
28,33
29,32
29,33
30,32
30,33
31,32
31,33
32,34
32,35
32,36
33,34
33,35
33,36
34,37
34,38
35,37
35,38
36,37
36,38
37,39
37,40
37,41
37,42
38,39
38,40
38,41
38,42
39,43
39,44
39,45
39,46
40,43
40,44
40,45
40,46
41,43
41,44
41,45
41,46
42,43
42,44
42,45
42,46
43,47
43,48
43,49
43,50
44,47
44,48
44,49
44,50
45,47
45,48
45,49
45,50
46,47
47,52
48,57
48,58
48,59
49,51
50,51
50,52
51,53
51,54
51,55
52,53
52,54
52,55
53,56
53,57
53,59
54,56
54,57
54,58
54,59
55,56
55,57
55,58
55,59
56,76
56,77
57,60
57,62
59,60
59,61
59,62
60,68
61,63
61,64
62,77
62,87
62,100
63,67
63,68
64,65
64,66
64,70
65,100
66,71
67,69
67,70
67,71
68,69
68,70
68,71
69,72
69,73
69,74
69,75
70,72
70,73
70,74
70,75
71,72
71,73
71,74
71,75
72,76
72,77
72,78
73,77
73,80
74,76
74,77
75,78
75,79
76,83
77,92
78,81
79,80
79,82
80,84
80,85
81,87
81,92
82,85
83,86
84,88
85,86
85,87
85,89
86,90
86,91
86,92
88,91
88,93
90,96
90,97
91,94
92,95
93,97
95,98
96,100
97,99

<end>
